11 16 15 14 13 12 23 22 31 30 32 33 34 35 36 37 38 40 41 39 42 43 44 47 48 49 54 55 56 53 52 50 51 84 83 82 57 58 59 81 80 79 61 60 63 62 78 77 76 64 75 74 73 123 71 72 65 66 67 68 70 69 124 125 126 127 128 129 130 131 132 133 134 135 136 137 138 139 140 141 151 150 149 152 148 147 146 142 143 144 145 158 157 159 156 155 153 154 165 164 166 167 163 162 160 161 168 169 171 170 172 175 174 173 108 109 111 112 113 114 110 107 542 541 543 544 545 546 547 103 104 105 106 115 116 117 122 121 120 119 118 95 96 97 94 89 88 87 86 85 90 93 92 91 46 45 555 556 557 558 559 552 553 554 98 99 100 102 101 551 550 548 549 560 561 562 563 564 565 566 567 29 28 27 26 25 24 21 20 19 568 569 570 474 473 472 471 495 494 524 525 493 482 475 476 477 478 479 480 481 483 484 485 486 487 534 535 536 537 539 538 540 187 188 186 185 183 182 179 178 176 177 180 181 184 197 198 199 200 201 202 204 203 208 207 206 205 196 195 194 209 210 211 212 213 214 215 216 217 223 224 222 221 220 218 219 193 192 191 190 226 225 189 227 228 229 230 231 533 488 489 532 531 530 233 232 234 235 236 528 529 490 491 492 526 523 522 521 520 517 516 515 514 527 512 513 511 510 509 237 240 239 238 246 247 245 244 243 242 241 248 249 250 251 252 254 253 255 256 257 300 301 302 508 507 506 307 303 304 306 305 318 317 319 320 321 297 298 299 258 259 260 261 262 263 264 265 266 267 271 272 269 268 270 296 295 294 293 291 292 273 274 275 290 289 288 276 277 278 279 282 281 280 287 286 285 284 283 334 335 336 337 338 339 333 332 331 330 340 341 343 344 345 346 347 348 349 350 351 352 415 416 414 413 417 419 418 410 411 412 356 355 353 354 357 358 359 360 361 362 363 364 398 397 399 400 401 402 403 404 405 406 407 408 409 384 383 385 387 391 392 393 394 395 396 371 372 370 369 368 367 365 342 366 329 328 327 326 325 324 323 322 373 374 375 376 377 378 379 380 381 390 389 388 386 382 425 424 422 420 421 423 426 427 428 429 431 430 432 433 434 435 437 438 436 443 444 445 446 447 448 450 451 312 314 315 316 313 311 310 309 308 505 504 503 502 498 519 518 497 501 500 499 452 453 440 441 449 442 439 454 455 456 457 458 459 460 461 462 463 466 467 465 464 496 470 469 468 571 572 573 0 1 2 3 4 5 6 7 8 17 18 9 10